c max 2 3 4 5 6 7 8 9 10 11 0
c max 12 13 14 15 16 17 18 19 20 21 0
c max 22 23 24 25 26 27 28 29 30 31 0
c max 32 33 0
c ind 158 127 156 157 154 155 152 153 150 151 0
c ind 148 149 146 147 144 145 142 143 140 141 0
c ind 138 139 136 137 134 135 132 133 130 131 0
c ind 66 129 0
p cnf 229 293
1 0
35 -66 0
2 -66 0
-2 -35 66 0
36 -67 0
3 -67 0
-3 -36 67 0
37 -68 0
4 -68 0
-4 -37 68 0
38 -69 0
5 -69 0
-5 -38 69 0
39 -70 0
6 -70 0
-6 -39 70 0
40 -71 0
7 -71 0
-7 -40 71 0
41 -72 0
8 -72 0
-8 -41 72 0
42 -73 0
9 -73 0
-9 -42 73 0
43 -74 0
10 -74 0
-10 -43 74 0
44 -75 0
11 -75 0
-11 -44 75 0
45 -76 0
12 -76 0
-12 -45 76 0
46 -77 0
13 -77 0
-13 -46 77 0
47 -78 0
14 -78 0
-14 -47 78 0
48 -79 0
15 -79 0
-15 -48 79 0
49 -80 0
16 -80 0
-16 -49 80 0
50 -81 0
17 -81 0
-17 -50 81 0
51 -82 0
18 -82 0
-18 -51 82 0
52 -83 0
19 -83 0
-19 -52 83 0
53 -84 0
20 -84 0
-20 -53 84 0
54 -85 0
21 -85 0
-21 -54 85 0
55 -86 0
22 -86 0
-22 -55 86 0
56 -87 0
23 -87 0
-23 -56 87 0
57 -88 0
24 -88 0
-24 -57 88 0
58 -89 0
25 -89 0
-25 -58 89 0
59 -90 0
26 -90 0
-26 -59 90 0
60 -91 0
27 -91 0
-27 -60 91 0
61 -92 0
28 -92 0
-28 -61 92 0
62 -93 0
29 -93 0
-29 -62 93 0
63 -94 0
30 -94 0
-30 -63 94 0
64 -95 0
31 -95 0
-31 -64 95 0
65 -96 0
32 -96 0
-32 -65 96 0
34 -97 0
2 -97 0
-2 -34 97 0
35 -98 0
3 -98 0
-3 -35 98 0
36 -99 0
4 -99 0
-4 -36 99 0
37 -100 0
5 -100 0
-5 -37 100 0
38 -101 0
6 -101 0
-6 -38 101 0
39 -102 0
7 -102 0
-7 -39 102 0
40 -103 0
8 -103 0
-8 -40 103 0
41 -104 0
9 -104 0
-9 -41 104 0
42 -105 0
10 -105 0
-10 -42 105 0
43 -106 0
11 -106 0
-11 -43 106 0
44 -107 0
12 -107 0
-12 -44 107 0
45 -108 0
13 -108 0
-13 -45 108 0
46 -109 0
14 -109 0
-14 -46 109 0
47 -110 0
15 -110 0
-15 -47 110 0
48 -111 0
16 -111 0
-16 -48 111 0
49 -112 0
17 -112 0
-17 -49 112 0
50 -113 0
18 -113 0
-18 -50 113 0
51 -114 0
19 -114 0
-19 -51 114 0
52 -115 0
20 -115 0
-20 -52 115 0
53 -116 0
21 -116 0
-21 -53 116 0
54 -117 0
22 -117 0
-22 -54 117 0
55 -118 0
23 -118 0
-23 -55 118 0
56 -119 0
24 -119 0
-24 -56 119 0
57 -120 0
25 -120 0
-25 -57 120 0
58 -121 0
26 -121 0
-26 -58 121 0
59 -122 0
27 -122 0
-27 -59 122 0
60 -123 0
28 -123 0
-28 -60 123 0
61 -124 0
29 -124 0
-29 -61 124 0
62 -125 0
30 -125 0
-30 -62 125 0
63 -126 0
31 -126 0
-31 -63 126 0
64 -127 0
32 -127 0
-32 -64 127 0
65 -128 0
33 -128 0
-33 -65 128 0
-67 129 0
-97 129 0
67 97 -129 0
-68 130 0
-98 130 0
68 98 -130 0
-69 131 0
-99 131 0
69 99 -131 0
-70 132 0
-100 132 0
70 100 -132 0
-71 133 0
-101 133 0
71 101 -133 0
-72 134 0
-102 134 0
72 102 -134 0
-73 135 0
-103 135 0
73 103 -135 0
-74 136 0
-104 136 0
74 104 -136 0
-75 137 0
-105 137 0
75 105 -137 0
-76 138 0
-106 138 0
76 106 -138 0
-77 139 0
-107 139 0
77 107 -139 0
-78 140 0
-108 140 0
78 108 -140 0
-79 141 0
-109 141 0
79 109 -141 0
-80 142 0
-110 142 0
80 110 -142 0
-81 143 0
-111 143 0
81 111 -143 0
-82 144 0
-112 144 0
82 112 -144 0
-83 145 0
-113 145 0
83 113 -145 0
-84 146 0
-114 146 0
84 114 -146 0
-85 147 0
-115 147 0
85 115 -147 0
-86 148 0
-116 148 0
86 116 -148 0
-87 149 0
-117 149 0
87 117 -149 0
-88 150 0
-118 150 0
88 118 -150 0
-89 151 0
-119 151 0
89 119 -151 0
-90 152 0
-120 152 0
90 120 -152 0
-91 153 0
-121 153 0
91 121 -153 0
-92 154 0
-122 154 0
92 122 -154 0
-93 155 0
-123 155 0
93 123 -155 0
-94 156 0
-124 156 0
94 124 -156 0
-95 157 0
-125 157 0
95 125 -157 0
-96 158 0
-126 158 0
96 126 -158 0
-223 -225 -227 0
223 225 -227 0
-223 225 227 0
223 -225 227 0
-224 -226 -228 0
224 226 -228 0
-224 226 228 0
224 -226 228 0
-227 -229 0
-228 -229 0
227 228 229 0
-1 229 0
1 -229 0
c __CPROVER_malloc_is_new_array#1 FALSE
c f::1::res!0@1#1 191 192 193 194 195 196 197 198 199 200 201 202 203 204 205 206 207 208 209 210 211 212 213 214 215 216 217 218 219 220 221 222
c main::1::output0!0@1#2 158 127 156 157 154 155 152 153 150 151 148 149 146 147 144 145 142 143 140 141 138 139 136 137 134 135 132 133 130 131 66 129
c f#return_value!0#1 158 127 156 157 154 155 152 153 150 151 148 149 146 147 144 145 142 143 140 141 138 139 136 137 134 135 132 133 130 131 66 129
c f::1::res!0@1#7 158 127 156 157 154 155 152 153 150 151 148 149 146 147 144 145 142 143 140 141 138 139 136 137 134 135 132 133 130 131 66 129
c f::1::res!0@1#6 142 143 140 141 138 139 136 137 134 135 132 133 130 131 66 129 158 127 156 157 154 155 152 153 150 151 148 149 146 147 144 145
c f::1::res!0@1#5 134 135 132 133 130 131 66 129 142 143 140 141 138 139 136 137 150 151 148 149 146 147 144 145 158 127 156 157 154 155 152 153
c f::1::res!0@1#3 66 129 130 131 132 133 134 135 136 137 138 139 140 141 142 143 144 145 146 147 148 149 150 151 152 153 154 155 156 157 158 127
c main::1::secret0!0@1#1 34 35 36 37 38 39 40 41 42 43 44 45 46 47 48 49 50 51 52 53 54 55 56 57 58 59 60 61 62 63 64 65
c f::1::res!0@1#4 130 131 66 129 134 135 132 133 138 139 136 137 142 143 140 141 146 147 144 145 150 151 148 149 154 155 152 153 158 127 156 157
c __CPROVER_thread_id!0#1 FALSE FALSE FALSE FALSE FALSE FALSE FALSE FALSE FALSE FALSE FALSE FALSE FALSE FALSE FALSE FALSE FALSE FALSE FALSE FALSE FALSE FALSE FALSE FALSE FALSE FALSE FALSE FALSE FALSE FALSE FALSE FALSE FALSE FALSE FALSE FALSE FALSE FALSE FALSE FALSE FALSE FALSE FALSE FALSE FALSE FALSE FALSE FALSE FALSE FALSE FALSE FALSE FALSE FALSE FALSE FALSE FALSE FALSE FALSE FALSE FALSE FALSE FALSE FALSE
c main::1::public!0@1#1 2 3 4 5 6 7 8 9 10 11 12 13 14 15 16 17 18 19 20 21 22 23 24 25 26 27 28 29 30 31 32 33
c f::1::res!0@1#2 34 35 36 37 38 39 40 41 42 43 44 45 46 47 48 49 50 51 52 53 54 55 56 57 58 59 60 61 62 63 64 65
c __CPROVER_rounding_mode!0#1 FALSE FALSE FALSE FALSE FALSE FALSE FALSE FALSE FALSE FALSE FALSE FALSE FALSE FALSE FALSE FALSE FALSE FALSE FALSE FALSE FALSE FALSE FALSE FALSE FALSE FALSE FALSE FALSE FALSE FALSE FALSE FALSE
c __CPROVER_next_thread_id#1 FALSE FALSE FALSE FALSE FALSE FALSE FALSE FALSE FALSE FALSE FALSE FALSE FALSE FALSE FALSE FALSE FALSE FALSE FALSE FALSE FALSE FALSE FALSE FALSE FALSE FALSE FALSE FALSE FALSE FALSE FALSE FALSE FALSE FALSE FALSE FALSE FALSE FALSE FALSE FALSE FALSE FALSE FALSE FALSE FALSE FALSE FALSE FALSE FALSE FALSE FALSE FALSE FALSE FALSE FALSE FALSE FALSE FALSE FALSE FALSE FALSE FALSE FALSE FALSE
c f::public!0@1#1 2 3 4 5 6 7 8 9 10 11 12 13 14 15 16 17 18 19 20 21 22 23 24 25 26 27 28 29 30 31 32 33
c f::secret!0@1#1 34 35 36 37 38 39 40 41 42 43 44 45 46 47 48 49 50 51 52 53 54 55 56 57 58 59 60 61 62 63 64 65
c __CPROVER_pipe_count#1 FALSE FALSE FALSE FALSE FALSE FALSE FALSE FALSE FALSE FALSE FALSE FALSE FALSE FALSE FALSE FALSE FALSE FALSE FALSE FALSE FALSE FALSE FALSE FALSE FALSE FALSE FALSE FALSE FALSE FALSE FALSE FALSE
c __CPROVER_memory_leak#1 FALSE FALSE FALSE FALSE FALSE FALSE FALSE FALSE FALSE FALSE FALSE FALSE FALSE FALSE FALSE FALSE FALSE FALSE FALSE FALSE FALSE FALSE FALSE FALSE FALSE FALSE FALSE FALSE FALSE FALSE FALSE FALSE FALSE FALSE FALSE FALSE FALSE FALSE FALSE FALSE FALSE FALSE FALSE FALSE FALSE FALSE FALSE FALSE FALSE FALSE FALSE FALSE FALSE FALSE FALSE FALSE FALSE FALSE FALSE FALSE FALSE FALSE FALSE FALSE
c __CPROVER_malloc_object#1 FALSE FALSE FALSE FALSE FALSE FALSE FALSE FALSE FALSE FALSE FALSE FALSE FALSE FALSE FALSE FALSE FALSE FALSE FALSE FALSE FALSE FALSE FALSE FALSE FALSE FALSE FALSE FALSE FALSE FALSE FALSE FALSE FALSE FALSE FALSE FALSE FALSE FALSE FALSE FALSE FALSE FALSE FALSE FALSE FALSE FALSE FALSE FALSE FALSE FALSE FALSE FALSE FALSE FALSE FALSE FALSE FALSE FALSE FALSE FALSE FALSE FALSE FALSE FALSE
c __CPROVER_deallocated#1 FALSE FALSE FALSE FALSE FALSE FALSE FALSE FALSE FALSE FALSE FALSE FALSE FALSE FALSE FALSE FALSE FALSE FALSE FALSE FALSE FALSE FALSE FALSE FALSE FALSE FALSE FALSE FALSE FALSE FALSE FALSE FALSE FALSE FALSE FALSE FALSE FALSE FALSE FALSE FALSE FALSE FALSE FALSE FALSE FALSE FALSE FALSE FALSE FALSE FALSE FALSE FALSE FALSE FALSE FALSE FALSE FALSE FALSE FALSE FALSE FALSE FALSE FALSE FALSE
c __CPROVER_malloc_size#1 FALSE FALSE FALSE FALSE FALSE FALSE FALSE FALSE FALSE FALSE FALSE FALSE FALSE FALSE FALSE FALSE FALSE FALSE FALSE FALSE FALSE FALSE FALSE FALSE FALSE FALSE FALSE FALSE FALSE FALSE FALSE FALSE FALSE FALSE FALSE FALSE FALSE FALSE FALSE FALSE FALSE FALSE FALSE FALSE FALSE FALSE FALSE FALSE FALSE FALSE FALSE FALSE FALSE FALSE FALSE FALSE FALSE FALSE FALSE FALSE FALSE FALSE FALSE FALSE
c main::1::output0!0@1#1 159 160 161 162 163 164 165 166 167 168 169 170 171 172 173 174 175 176 177 178 179 180 181 182 183 184 185 186 187 188 189 190
c __CPROVER_dead_object#1 FALSE FALSE FALSE FALSE FALSE FALSE FALSE FALSE FALSE FALSE FALSE FALSE FALSE FALSE FALSE FALSE FALSE FALSE FALSE FALSE FALSE FALSE FALSE FALSE FALSE FALSE FALSE FALSE FALSE FALSE FALSE FALSE FALSE FALSE FALSE FALSE FALSE FALSE FALSE FALSE FALSE FALSE FALSE FALSE FALSE FALSE FALSE FALSE FALSE FALSE FALSE FALSE FALSE FALSE FALSE FALSE FALSE FALSE FALSE FALSE FALSE FALSE FALSE FALSE
